36 36
23
3 3 3 9
3 4 3 5
3 5 3 0
3 6 18 0
3 7 18 21
3 8 18 28
3 9 33 16
3 10 0 26
3 11 33 25
3 12 0 0
3 14 0 12
3 15 18 6
3 16 33 0
3 24 3 12
3 36 26 0
4 3 29 0
4 11 29 3
4 22 29 14
5 3 21 0
5 4 21 3
5 14 21 22
5 15 21 7
12 36 6 0
